NAME          BLANK   
ROWS
 N  OBJROW
 L  R0000000
COLUMNS
    C0000000  OBJROW     -302.         R0000000  9.          
    C0000001  OBJROW     -950.         R0000000  591.        
    C0000002  OBJROW     -375.         R0000000  505.        
    C0000003  OBJROW     -987.         R0000000  336.        
    C0000004  OBJROW     -650.         R0000000  663.        
    C0000005  OBJROW     -420.         R0000000  240.        
    C0000006  OBJROW     -308.         R0000000  651.        
    C0000007  OBJROW     -163.         R0000000  70.         
    C0000008  OBJROW     -460.         R0000000  702.        
    C0000009  OBJROW     -419.         R0000000  15.         
RHS
    RHS       R0000000  14110.      
BOUNDS
 BV BOUND     C0000000  1.          
 BV BOUND     C0000001  1.          
 BV BOUND     C0000002  1.          
 BV BOUND     C0000003  1.          
 BV BOUND     C0000004  1.          
 BV BOUND     C0000005  1.          
 BV BOUND     C0000006  1.          
 BV BOUND     C0000007  1.          
 BV BOUND     C0000008  1.          
 BV BOUND     C0000009  1.          
ENDATA
